WARNING: for repeatability, setting FPU to use double precision
============================[ Problem Statistics ]=============================
|                                                                             |
|  Number of variables:          2867                                         |
|  Number of clauses:           71029                                         |
|  Parse time:                   0.01 s                                       |
|                                                                             |
c ============================[ Search Statistics ]==============================
c | Conflicts |          ORIGINAL         |          LEARNT          | Progress |
c |           |    Vars  Clauses Literals |    Limit  Clauses Lit/Cl |          |
c ===============================================================================
c Switched to VSIDS.
c Switched to LRB.
c Switched to VSIDS.
c Switched to LRB.
c Switched to VSIDS.
c Switched to LRB.
c Switched to VSIDS.
c Switched to LRB.
c Switched to VSIDS.
c Switched to LRB.
c Switched to VSIDS.
c Switched to LRB.
c Switched to VSIDS.
c Switched to LRB.
c Switched to VSIDS.
c Switched to LRB.
c Switched to VSIDS.
c Switched to LRB.
c Switched to VSIDS.
c Switched to LRB.
c Switched to VSIDS.
c Switched to LRB.
c Switched to VSIDS.
c Switched to LRB.
c Switched to VSIDS.
c Switched to LRB.
c Switched to VSIDS.
c Switched to LRB.
CAREFUL: the definition is falsified in conflict 15062312 at DL 21 (has happened 1 times)
c Switched to VSIDS.
c Switched to LRB.
c Switched to VSIDS.
c ===============================================================================
restarts                  : 70245
conflicts                 : 18632463       (5281 /sec)
decisions                 : 43857910       (0.00 % random) (12430 /sec)
propagations              : 5933579106     (1681673 /sec)
conflict literals         : 3285834982     (16.53 % deleted)

conflicts w/ DIP found    : 7001142        (37.57 % of conflicts)
conflicts w/ dangerous DIP: 2              (0.00 % of conflicts)
conflicts w/ DIP-learning : 193925         (1.04 % of conflicts)
decisions on ext vars     : 3086124        (7.04 % of decisions)
total ext vars            : 6290        
tried delete ext vars     : 0           
deleted ext vars          : 0           
max ext vars              : 6290        

Memory used               : 415.00 MB
CPU time                  : 3528.38 s
DIP computation time      : 95.0155 s (2.69 % of total time)
ER_sel time               : 28.3584 s
ER_add time               : 0.026503 s
ER_delC time              : 0 s
ER_delV time              : 0 s
ER_sub time               : 31.7073 s
ER_stat time              : 0 s

INDETERMINATE
